30 
6 
125
6 6 6 6 42 42 42 42 42 41 5 5 30 30 30 30 30 5 5 5 5 5 5 5 5 5 5 5 5 5 
0 0 0
0 1 18
0 2 38
0 3 56
0 4 76
0 5 94
0 6 114
0 7 132
0 8 152
0 9 170
0 10 103
0 11 121
0 12 141
0 13 159
0 14 179
0 15 197
0 16 217
0 17 235
0 18 255
0 19 273
0 20 206
0 21 224
0 22 244
0 23 262
0 24 282
0 25 300
0 26 320
0 27 338
0 28 358
0 29 376
1 0 18
1 1 0
1 2 20
1 3 38
1 4 58
1 5 76
1 6 96
1 7 114
1 8 134
1 9 152
1 10 121
1 11 103
1 12 123
1 13 141
1 14 161
1 15 179
1 16 199
1 17 217
1 18 237
1 19 255
1 20 224
1 21 206
1 22 226
1 23 244
1 24 264
1 25 282
1 26 302
1 27 320
1 28 340
1 29 358
2 0 38
2 1 20
2 2 0
2 3 18
2 4 38
2 5 56
2 6 76
2 7 94
2 8 114
2 9 132
2 10 141
2 11 123
2 12 103
2 13 121
2 14 141
2 15 159
2 16 179
2 17 197
2 18 217
2 19 235
2 20 244
2 21 226
2 22 206
2 23 224
2 24 244
2 25 262
2 26 282
2 27 300
2 28 320
2 29 338
3 0 56
3 1 38
3 2 18
3 3 0
3 4 20
3 5 38
3 6 58
3 7 76
3 8 96
3 9 114
3 10 159
3 11 141
3 12 121
3 13 103
3 14 123
3 15 141
3 16 161
3 17 179
3 18 199
3 19 217
3 20 262
3 21 244
3 22 224
3 23 206
3 24 226
3 25 244
3 26 264
3 27 282
3 28 302
3 29 320
4 0 76
4 1 58
4 2 38
4 3 20
4 4 0
4 5 18
4 6 38
4 7 56
4 8 76
4 9 94
4 10 179
4 11 161
4 12 141
4 13 123
4 14 103
4 15 121
4 16 141
4 17 159
4 18 179
4 19 197
4 20 282
4 21 264
4 22 244
4 23 226
4 24 206
4 25 224
4 26 244
4 27 262
4 28 282
4 29 300
5 0 94
5 1 76
5 2 56
5 3 38
5 4 18
5 5 0
5 6 20
5 7 38
5 8 58
5 9 76
5 10 197
5 11 179
5 12 159
5 13 141
5 14 121
5 15 103
5 16 123
5 17 141
5 18 161
5 19 179
5 20 300
5 21 282
5 22 262
5 23 244
5 24 224
5 25 206
5 26 226
5 27 244
5 28 264
5 29 282
6 0 114
6 1 96
6 2 76
6 3 58
6 4 38
6 5 20
6 6 0
6 7 18
6 8 38
6 9 56
6 10 217
6 11 199
6 12 179
6 13 161
6 14 141
6 15 123
6 16 103
6 17 121
6 18 141
6 19 159
6 20 320
6 21 302
6 22 282
6 23 264
6 24 244
6 25 226
6 26 206
6 27 224
6 28 244
6 29 262
7 0 132
7 1 114
7 2 94
7 3 76
7 4 56
7 5 38
7 6 18
7 7 0
7 8 20
7 9 38
7 10 235
7 11 217
7 12 197
7 13 179
7 14 159
7 15 141
7 16 121
7 17 103
7 18 123
7 19 141
7 20 338
7 21 320
7 22 300
7 23 282
7 24 262
7 25 244
7 26 224
7 27 206
7 28 226
7 29 244
8 0 152
8 1 134
8 2 114
8 3 96
8 4 76
8 5 58
8 6 38
8 7 20
8 8 0
8 9 18
8 10 255
8 11 237
8 12 217
8 13 199
8 14 179
8 15 161
8 16 141
8 17 123
8 18 103
8 19 121
8 20 358
8 21 340
8 22 320
8 23 302
8 24 282
8 25 264
8 26 244
8 27 226
8 28 206
8 29 224
9 0 170
9 1 152
9 2 132
9 3 114
9 4 94
9 5 76
9 6 56
9 7 38
9 8 18
9 9 0
9 10 273
9 11 255
9 12 235
9 13 217
9 14 197
9 15 179
9 16 159
9 17 141
9 18 121
9 19 103
9 20 376
9 21 358
9 22 338
9 23 320
9 24 300
9 25 282
9 26 262
9 27 244
9 28 224
9 29 206
10 0 103
10 1 121
10 2 141
10 3 159
10 4 179
10 5 197
10 6 217
10 7 235
10 8 255
10 9 273
10 10 0
10 11 18
10 12 38
10 13 56
10 14 76
10 15 94
10 16 114
10 17 132
10 18 152
10 19 170
10 20 103
10 21 121
10 22 141
10 23 159
10 24 179
10 25 197
10 26 217
10 27 235
10 28 255
10 29 273
11 0 121
11 1 103
11 2 123
11 3 141
11 4 161
11 5 179
11 6 199
11 7 217
11 8 237
11 9 255
11 10 18
11 11 0
11 12 20
11 13 38
11 14 58
11 15 76
11 16 96
11 17 114
11 18 134
11 19 152
11 20 121
11 21 103
11 22 123
11 23 141
11 24 161
11 25 179
11 26 199
11 27 217
11 28 237
11 29 255
12 0 141
12 1 123
12 2 103
12 3 121
12 4 141
12 5 159
12 6 179
12 7 197
12 8 217
12 9 235
12 10 38
12 11 20
12 12 0
12 13 18
12 14 38
12 15 56
12 16 76
12 17 94
12 18 114
12 19 132
12 20 141
12 21 123
12 22 103
12 23 121
12 24 141
12 25 159
12 26 179
12 27 197
12 28 217
12 29 235
13 0 159
13 1 141
13 2 121
13 3 103
13 4 123
13 5 141
13 6 161
13 7 179
13 8 199
13 9 217
13 10 56
13 11 38
13 12 18
13 13 0
13 14 20
13 15 38
13 16 58
13 17 76
13 18 96
13 19 114
13 20 159
13 21 141
13 22 121
13 23 103
13 24 123
13 25 141
13 26 161
13 27 179
13 28 199
13 29 217
14 0 179
14 1 161
14 2 141
14 3 123
14 4 103
14 5 121
14 6 141
14 7 159
14 8 179
14 9 197
14 10 76
14 11 58
14 12 38
14 13 20
14 14 0
14 15 18
14 16 38
14 17 56
14 18 76
14 19 94
14 20 179
14 21 161
14 22 141
14 23 123
14 24 103
14 25 121
14 26 141
14 27 159
14 28 179
14 29 197
15 0 197
15 1 179
15 2 159
15 3 141
15 4 121
15 5 103
15 6 123
15 7 141
15 8 161
15 9 179
15 10 94
15 11 76
15 12 56
15 13 38
15 14 18
15 15 0
15 16 20
15 17 38
15 18 58
15 19 76
15 20 197
15 21 179
15 22 159
15 23 141
15 24 121
15 25 103
15 26 123
15 27 141
15 28 161
15 29 179
16 0 217
16 1 199
16 2 179
16 3 161
16 4 141
16 5 123
16 6 103
16 7 121
16 8 141
16 9 159
16 10 114
16 11 96
16 12 76
16 13 58
16 14 38
16 15 20
16 16 0
16 17 18
16 18 38
16 19 56
16 20 217
16 21 199
16 22 179
16 23 161
16 24 141
16 25 123
16 26 103
16 27 121
16 28 141
16 29 159
17 0 235
17 1 217
17 2 197
17 3 179
17 4 159
17 5 141
17 6 121
17 7 103
17 8 123
17 9 141
17 10 132
17 11 114
17 12 94
17 13 76
17 14 56
17 15 38
17 16 18
17 17 0
17 18 20
17 19 38
17 20 235
17 21 217
17 22 197
17 23 179
17 24 159
17 25 141
17 26 121
17 27 103
17 28 123
17 29 141
18 0 255
18 1 237
18 2 217
18 3 199
18 4 179
18 5 161
18 6 141
18 7 123
18 8 103
18 9 121
18 10 152
18 11 134
18 12 114
18 13 96
18 14 76
18 15 58
18 16 38
18 17 20
18 18 0
18 19 18
18 20 255
18 21 237
18 22 217
18 23 199
18 24 179
18 25 161
18 26 141
18 27 123
18 28 103
18 29 121
19 0 273
19 1 255
19 2 235
19 3 217
19 4 197
19 5 179
19 6 159
19 7 141
19 8 121
19 9 103
19 10 170
19 11 152
19 12 132
19 13 114
19 14 94
19 15 76
19 16 56
19 17 38
19 18 18
19 19 0
19 20 273
19 21 255
19 22 235
19 23 217
19 24 197
19 25 179
19 26 159
19 27 141
19 28 121
19 29 103
20 0 206
20 1 224
20 2 244
20 3 262
20 4 282
20 5 300
20 6 320
20 7 338
20 8 358
20 9 376
20 10 103
20 11 121
20 12 141
20 13 159
20 14 179
20 15 197
20 16 217
20 17 235
20 18 255
20 19 273
20 20 0
20 21 18
20 22 38
20 23 56
20 24 76
20 25 94
20 26 114
20 27 132
20 28 152
20 29 170
21 0 224
21 1 206
21 2 226
21 3 244
21 4 264
21 5 282
21 6 302
21 7 320
21 8 340
21 9 358
21 10 121
21 11 103
21 12 123
21 13 141
21 14 161
21 15 179
21 16 199
21 17 217
21 18 237
21 19 255
21 20 18
21 21 0
21 22 20
21 23 38
21 24 58
21 25 76
21 26 96
21 27 114
21 28 134
21 29 152
22 0 244
22 1 226
22 2 206
22 3 224
22 4 244
22 5 262
22 6 282
22 7 300
22 8 320
22 9 338
22 10 141
22 11 123
22 12 103
22 13 121
22 14 141
22 15 159
22 16 179
22 17 197
22 18 217
22 19 235
22 20 38
22 21 20
22 22 0
22 23 18
22 24 38
22 25 56
22 26 76
22 27 94
22 28 114
22 29 132
23 0 262
23 1 244
23 2 224
23 3 206
23 4 226
23 5 244
23 6 264
23 7 282
23 8 302
23 9 320
23 10 159
23 11 141
23 12 121
23 13 103
23 14 123
23 15 141
23 16 161
23 17 179
23 18 199
23 19 217
23 20 56
23 21 38
23 22 18
23 23 0
23 24 20
23 25 38
23 26 58
23 27 76
23 28 96
23 29 114
24 0 282
24 1 264
24 2 244
24 3 226
24 4 206
24 5 224
24 6 244
24 7 262
24 8 282
24 9 300
24 10 179
24 11 161
24 12 141
24 13 123
24 14 103
24 15 121
24 16 141
24 17 159
24 18 179
24 19 197
24 20 76
24 21 58
24 22 38
24 23 20
24 24 0
24 25 18
24 26 38
24 27 56
24 28 76
24 29 94
25 0 300
25 1 282
25 2 262
25 3 244
25 4 224
25 5 206
25 6 226
25 7 244
25 8 264
25 9 282
25 10 197
25 11 179
25 12 159
25 13 141
25 14 121
25 15 103
25 16 123
25 17 141
25 18 161
25 19 179
25 20 94
25 21 76
25 22 56
25 23 38
25 24 18
25 25 0
25 26 20
25 27 38
25 28 58
25 29 76
26 0 320
26 1 302
26 2 282
26 3 264
26 4 244
26 5 226
26 6 206
26 7 224
26 8 244
26 9 262
26 10 217
26 11 199
26 12 179
26 13 161
26 14 141
26 15 123
26 16 103
26 17 121
26 18 141
26 19 159
26 20 114
26 21 96
26 22 76
26 23 58
26 24 38
26 25 20
26 26 0
26 27 18
26 28 38
26 29 56
27 0 338
27 1 320
27 2 300
27 3 282
27 4 262
27 5 244
27 6 224
27 7 206
27 8 226
27 9 244
27 10 235
27 11 217
27 12 197
27 13 179
27 14 159
27 15 141
27 16 121
27 17 103
27 18 123
27 19 141
27 20 132
27 21 114
27 22 94
27 23 76
27 24 56
27 25 38
27 26 18
27 27 0
27 28 20
27 29 38
28 0 358
28 1 340
28 2 320
28 3 302
28 4 282
28 5 264
28 6 244
28 7 226
28 8 206
28 9 224
28 10 255
28 11 237
28 12 217
28 13 199
28 14 179
28 15 161
28 16 141
28 17 123
28 18 103
28 19 121
28 20 152
28 21 134
28 22 114
28 23 96
28 24 76
28 25 58
28 26 38
28 27 20
28 28 0
28 29 18
29 0 376
29 1 358
29 2 338
29 3 320
29 4 300
29 5 282
29 6 262
29 7 244
29 8 224
29 9 206
29 10 273
29 11 255
29 12 235
29 13 217
29 14 197
29 15 179
29 16 159
29 17 141
29 18 121
29 19 103
29 20 170
29 21 152
29 22 132
29 23 114
29 24 94
29 25 76
29 26 56
29 27 38
29 28 18
29 29 0
